(set-logic HORN)
(set-info :source |
    Benchmark: C_VC
    Output by Princess (http://www.philipp.ruemmer.org/princess.shtml)
|)
(set-info :status unknown)
(declare-fun inv_main12 (Int Int Int) Bool)
(declare-fun inv_main3 (Int Int Int) Bool)
(declare-fun inv_main7 (Int Int Int) Bool)
(declare-fun inv_main9 (Int Int Int) Bool)
(assert (forall ((var0 Int)) (forall ((var1 Int)) (forall ((var2 Int)) (inv_main3 var1 var2 var0 ) ) ) ) )
(assert (forall ((var0 Int)) (forall ((var1 Int)) (forall ((var2 Int)) (or (not (and (inv_main9 var2 var0 var1 ) (<= 0 (+ (+ 20 (* (- 1) var0 ) ) (- 1) ) ) ) ) (inv_main9 var2 (+ var2 var0 ) var1 ) ) ) ) ) )
(assert (forall ((var0 Int)) (forall ((var1 Int)) (forall ((var2 Int)) (or (not (and (inv_main9 var2 var0 var1 ) (not (<= 0 (+ (+ 20 (* (- 1) var0 ) ) (- 1) ) ) ) ) ) (inv_main12 var2 var0 4 ) ) ) ) ) )
(assert (forall ((var0 Int)) (forall ((var1 Int)) (forall ((var2 Int)) (or (not (and (inv_main12 var2 var0 var1 ) (<= 0 (+ 3 (* (- 1) var1 ) ) ) ) ) (inv_main12 var2 var0 (+ var1 1 ) ) ) ) ) ) )
(assert (forall ((var0 Int)) (forall ((var1 Int)) (forall ((var2 Int)) (or (not (and (inv_main12 var2 var0 var1 ) (and (not (<= 0 (+ 100 (* (- 1) var2 ) ) ) ) (not (<= 0 (+ 3 (* (- 1) var1 ) ) ) ) ) ) ) (inv_main7 var2 var0 var1 ) ) ) ) ) )
(assert (forall ((var0 Int)) (forall ((var1 Int)) (forall ((var2 Int)) (or (not (and (inv_main12 var2 var0 var1 ) (and (<= 0 (+ 100 (* (- 1) var2 ) ) ) (not (<= 0 (+ 3 (* (- 1) var1 ) ) ) ) ) ) ) (inv_main9 (+ var2 1 ) var0 var1 ) ) ) ) ) )
(assert (forall ((var0 Int)) (forall ((var1 Int)) (forall ((var2 Int)) (or (not (inv_main3 var2 var0 var1 ) ) (inv_main9 1 (- 100) 9 ) ) ) ) ) )
(assert (forall ((var0 Int)) (forall ((var1 Int)) (forall ((var2 Int)) (not (and (inv_main7 var2 var0 var1 ) (not (= var1 4 ) ) ) ) ) ) ) )
(check-sat)
